; Filename: /home/vboxuser/Desktop/WacsimCur/WaCSim/examples/EdenTown/OddEven_CustomAlgo_Example/EdenTown.inp
; WNTR: 1.3.2
; Created: 2025-11-06 20:27:29
[TITLE]
Anytown master file for rl-wds

[JUNCTIONS]
;ID                      Elevation       Demand Pattern                 
 J1                             15.24      200.425999 PAT1                       ;
 J2                             15.24      300.565002 PAT1                       ;
 J3                             15.24      600.565002 PAT1                       ;
 J4                             15.24      500.130005 PAT1                       ;
 J5                             15.24             850 PAT1                       ;
 J5S                           66.535               0 PAT1                       ;
 J1S                            15.24               0 PAT1                       ;
 J4S                            15.24               0 PAT1                       ;

[RESERVOIRS]
;ID                                   Head                  Pattern
 R2                             3.048                            ;
 R1                             3.048                            ;

[TANKS]
;ID                              Elevation           Init Level            Min Level            Max Level             Diameter           Min Volume Volume Curve         Overflow            
 T1                            66.535           3.051               0          10.668          9.9532               0                                             ;
 T2                            66.535           3.051               0          10.668          9.9532               0                                             ;

[PIPES]
;ID                   Node1                Node2                              Length             Diameter            Roughness           Minor Loss               Status
 PIPE1                J1                   J2                            2743.2           304.8              70               0                 Open   ;
 PIPE3                J1S                  J3                            1828.8             254             120               0                 Open   ;
 PIPE2                J2                   J4                            1828.8             254              70               0                 Open   ;
 PIPE4                J3                   J4                            1828.8             254              70               0                 Open   ;
 PIPE5                J3                   J5                             30.48           304.8             120               0                 Open   ;
 PIPE6                J4S                  T2                            0.3048           304.8             120               0                 Open   ;
 PIPE7                T1                   J5S                             1000           304.8             120               0                 Open   ;

[PUMPS]
;ID                   Node1                Node2                Properties          
 P2                   R2                   J2                   HEAD     H1                     ;
 P1                   R1                   J1                   HEAD     H1                     ;

[VALVES]
;ID                   Node1                Node2                            Diameter Type              Setting           Minor Loss
 V5                   J5                   J5S                            304.8 PRV                0               0   ;
 V1                   J1                   J1S                              254 PRV                0               0   ;
 V4                   J4                   J4S                            304.8 PRV                0               0   ;

[TAGS]
;type      name       tag       

[DEMANDS]
;ID        Demand     Pattern   

[STATUS]
;ID        Setting   
V5         Open      
V1         Open      
V4         Open      

[PATTERNS]
;ID        Multipliers

PAT1 0.046171 0.030866 0.037998 0.025397 0.046075 0.072150
PAT1 0.075830 0.109621 0.110828 0.083010 0.066364 0.074418
PAT1 0.065714 0.059762 0.072626 0.062890 0.064074 0.079870
PAT1 0.071073 0.072718 0.059296 0.050041 0.062003 0.062549
PAT1 0.057720 0.030673 0.068239 0.039798 0.051224 0.053057
PAT1 0.085920 0.112756 0.073470 0.070025 0.077089 0.052161
PAT1 0.090100 0.049685 0.046788 0.072012 0.067705 0.084848
PAT1 0.072213 0.083972 0.066969 0.062331 0.039728 0.092705
PAT1 0.070520 0.042079 0.014113 0.050821 0.040189 0.041259
PAT1 0.090705 0.087917 0.113380 0.094810 0.101706 0.068330
PAT1 0.077981 0.058933 0.065618 0.062975 0.056316 0.090964
PAT1 0.077547 0.073009 0.065732 0.062194 0.048053 0.046815
PAT1 0.039286 0.035887 0.028601 0.016524 0.047009 0.062876
PAT1 0.075808 0.092542 0.095526 0.092432 0.064678 0.051605
PAT1 0.054627 0.056517 0.035340 0.066864 0.064795 0.087174
PAT1 0.072061 0.056630 0.051634 0.068156 0.044818 0.070482
PAT1 0.039032 0.027541 0.006633 0.041022 0.041904 0.045455
PAT1 0.065444 0.064119 0.074984 0.072819 0.062421 0.071840
PAT1 0.059025 0.049641 0.059824 0.061713 0.071037 0.055885
PAT1 0.057751 0.077091 0.035289 0.061409 0.042454 0.079871
PAT1 0.052023 0.016530 0.040594 0.033621 0.052607 0.067764
PAT1 0.078230 0.098787 0.091083 0.094153 0.075142 0.054084
PAT1 0.074142 0.069504 0.058476 0.058639 0.073974 0.067545
PAT1 0.069584 0.071189 0.073304 0.048597 0.058335 0.062133
PAT1 0.049883 0.035781 0.049877 0.022068 0.045703 0.065567
PAT1 0.072593 0.095650 0.085773 0.078744 0.065128 0.079358
PAT1 0.061353 0.069122 0.073756 0.078407 0.087389 0.071948
PAT1 0.067458 0.072613 0.073865 0.065787 0.061621 0.040846

PAT4 0.040967 0.031136 0.019285 0.039867 0.050769 0.050024
PAT4 0.075822 0.076162 0.074985 0.079877 0.080593 0.065566
PAT4 0.071202 0.063867 0.069507 0.076945 0.071955 0.051093
PAT4 0.069613 0.061202 0.050820 0.045483 0.043421 0.035891
PAT4 0.056841 0.043411 0.031352 0.032066 0.052603 0.052601
PAT4 0.080979 0.107037 0.081470 0.071937 0.064938 0.066546
PAT4 0.070036 0.049129 0.054299 0.073309 0.062114 0.058679
PAT4 0.059356 0.058427 0.058565 0.053984 0.047894 0.043169
PAT4 0.063397 0.037487 0.028440 0.046210 0.051676 0.050975
PAT4 0.068661 0.099768 0.090662 0.077997 0.075993 0.066029
PAT4 0.069941 0.063171 0.046651 0.053321 0.080575 0.075469
PAT4 0.070330 0.064872 0.066805 0.050303 0.047695 0.057890
PAT4 0.042609 0.029868 0.034744 0.036160 0.050496 0.077854
PAT4 0.088091 0.066105 0.088626 0.078545 0.077430 0.066556
PAT4 0.039163 0.065858 0.079564 0.063116 0.050300 0.079238
PAT4 0.074578 0.075975 0.065362 0.050108 0.047671 0.064938
PAT4 0.048949 0.037435 0.034078 0.036405 0.024501 0.048259
PAT4 0.092644 0.093411 0.087264 0.078197 0.078382 0.071519
PAT4 0.062127 0.037982 0.087962 0.075865 0.067330 0.057597
PAT4 0.053273 0.079644 0.069139 0.054531 0.021887 0.043363
PAT4 0.031647 0.052041 0.038465 0.034374 0.025870 0.051728
PAT4 0.081884 0.094253 0.084292 0.088129 0.072002 0.072543
PAT4 0.068955 0.062594 0.054663 0.060802 0.066276 0.053592
PAT4 0.046941 0.068596 0.052446 0.044314 0.039118 0.050617
PAT4 0.061728 0.033780 0.035549 0.024739 0.044468 0.057457
PAT4 0.092796 0.101641 0.091232 0.067268 0.066643 0.049525
PAT4 0.066601 0.048068 0.048137 0.053806 0.064843 0.078571
PAT4 0.063721 0.049806 0.049595 0.057339 0.060017 0.053507

[CURVES]
;ID         X-Value      Y-Value     
;PUMP: H1
 H1             0.000000    85.440000   ;
 H1           550.260000    75.000000   ;
 H1          1200.520000    70.296000   ;
 H1          1400.780000    65.104000   ;
 H1          2200.040000    60.169000   ;
 H1          2900.000000     0.000000   ;

;UNKNOWN: E1
 E1             0.000000     0.000000   ;
 E1           454.260000     0.500000   ;
 E1           908.520000     0.650000   ;
 E1          1362.780000     0.550000   ;
 E1          1817.040000     0.400000   ;
 E1          2900.000000     0.000000   ;


[CONTROLS]
Valve V5 Closed IF Tank T1 above 10.0
Valve V5 Open IF Tank T1 below 9.0
Valve V4 Closed IF Tank T2 above 10.0
Valve V4 Open IF Tank T2 below 9.0
Valve V5 Open IF Tank T1 above -1.0
Valve V1 Open IF Tank T1 above -1.0
Valve V4 Open IF Tank T1 above -1.0
Pump P2 Open IF Tank T1 above -1.0
Pump P1 Open IF Tank T1 above -1.0

[RULES]

[ENERGY]
GLOBAL EFFICIENCY      75.0000
GLOBAL PRICE           0.0000
DEMAND CHARGE          0.0000

[EMITTERS]
;ID        Flow coefficient

[QUALITY]

[SOURCES]
;Node      Type       Quality    Pattern   

[REACTIONS]
;Type           Pipe/Tank               Coefficient

 ORDER BULK 1
 ORDER TANK 1
 ORDER WALL 1
 GLOBAL BULK 0.0000    
 GLOBAL WALL 0.0000    
 LIMITING POTENTIAL 0.0000    
 ROUGHNESS CORRELATION 0.0000    

[MIXING]
;Tank ID             Model Fraction

[TIMES]
DURATION             33:20:00
HYDRAULIC TIMESTEP   00:05:00
QUALITY TIMESTEP     00:05:00
PATTERN TIMESTEP     01:00:00
PATTERN START        00:00:00
REPORT TIMESTEP      00:05:00
REPORT START         00:00:00
START CLOCKTIME      00:00:00 AM
RULE TIMESTEP        00:06:00
STATISTIC            NONE      

[REPORT]
SUMMARY    NO
PAGE       0

[OPTIONS]
UNITS                CMH                 
HEADLOSS             H-W                 
SPECIFIC GRAVITY     1
VISCOSITY            1
TRIALS               200
ACCURACY             0.001
CHECKFREQ            2
MAXCHECK             10
UNBALANCED           STOP                
PATTERN              PAT1                
DEMAND MULTIPLIER    1
DEMAND MODEL         PDA
MINIMUM PRESSURE     0.00
REQUIRED PRESSURE    20.00
PRESSURE EXPONENT    0.5
EMITTER EXPONENT     0.5
QUALITY              NONE                
DIFFUSIVITY          1
TOLERANCE            0.01

[COORDINATES]
;Node      X-Coord    Y-Coord   
J1               7526.199000000       5693.339000000
J2               6450.570000000       4424.640000000
J3               6466.770000000       5769.850000000
J4               5332.250000000       5332.250000000
J5               6094.000000000       6499.190000000
J5S              5809.812000000       6840.866000000
J1S              7114.266000000       5894.401000000
J4S              4922.195000000       5619.779000000
R2               7320.233000000       4305.517000000
R1               7962.652000000       5752.186000000
T1               6094.000000000       7200.190000000
T2               4216.024000000       5639.395000000

[VERTICES]
;Link      X-Coord    Y-Coord   

[LABELS]

[BACKDROP]
DIMENSIONS    935.870    2613.650    9070.350    8738.700
UNITS    NONE
OFFSET    0.00    0.00

[END]
