[TITLE]
Anytown master file for rl-wds

[JUNCTIONS]
;ID              	Elev        	Demand      	Pattern         
 J2              	15.2400     	45.425999   	PAT1            	;
 J13             	15.2400     	113.565002  	PAT1            	;
 J14             	15.2400     	113.565002  	PAT1            	;
 J19             	15.2400     	227.130005  	PAT1            	;
 J21             	15.2400     	0.000000    	PAT1            	;

[RESERVOIRS]
;ID              	Head        	Pattern         
 R40             	3.048       	                	;
 1               	3.048       	                	;

[TANKS]
;ID              	Elevation   	InitLevel   	MinLevel    	MaxLevel    	Diameter    	MinVol      	VolCurve        	Overflow
 T41             	66.535      	3.051       	0           	10.668      	9.9532      	0           	                	;
 T42             	66.535      	3.051       	0           	10.668      	9.9532      	0           	                	;

[PIPES]
;ID              	Node1           	Node2           	Length      	Diameter    	Roughness   	MinorLoss   	Status
 PIPE7           	J2              	J13             	2743.2000   	304.8       	70.0000     	0.0000      	Open  	;Res
 PIPE8           	J2              	J14             	1828.8000   	254.0       	120.0000    	0.0000      	Open  	;Res
 PIPE30          	J13             	J19             	1828.8000   	254.0       	70.0000     	0.0000      	Open  	;city
 PIPE32          	J14             	J19             	1828.8000   	254.0       	70.0000     	0.0000      	Open  	;city
 PIPE33          	J14             	J21             	30.4800     	304.8       	120.0000    	0.0000      	Open  	;city
 PIPE142         	J21             	T41             	0.3048      	304.8       	120.0000    	0.0000      	Open  	;city
 PIPE143         	J19             	T42             	0.3048      	304.8       	120.0000    	0.0000      	Open  	;Res

[PUMPS]
;ID              	Node1           	Node2           	Parameters
 P79             	R40             	J13             	HEAD H1	;
 P1               	1               	J2              	HEAD H1	;

[VALVES]
;ID              	Node1           	Node2           	Diameter    	Type	Setting     	MinorLoss   
 V1                 J2                      J14                     254.0           PRV     30.0            0.0
[TAGS]

[DEMANDS]
;Junction        	Demand      	Pattern         	Category

[STATUS]
;ID              	Status/Setting

[PATTERNS]
;ID              	Multipliers
 PAT1            	0.4          0.3          0.3          0.3          0.7          1.0      
                 	1.2          1.3          1.3          1.2          1.0          0.6      
;
 PAT4            	0.0000      	0.0000      	0.0000      	0.0000      	0.0000      	0.0000      

[CURVES]
;ID              	X-Value     	Y-Value
 H1              	0.0000      	60.000      
 H1              	454.26000   	58.500      
 H1              	908.52000   	54.000      
 H1              	1362.7800   	46.800      
 H1              	1817.0400   	36.700      
 H1              	2900.0000   	0.          
;PUMP: 

[CONTROLS]
 Global Efficiency  	75.0000
 Global Price       	0
 Demand Charge      	0.0000

[REACTIONS]
 Order Bulk            	1.00
 Order Tank            	1.00
 Order Wall            	1
 Global Bulk           	0.000000
 Global Wall           	0.000000
 Limiting Potential    	0
 Roughness Correlation 	0

[MIXING]
;Tank            	Model

[TIMES]
 Duration           	24
 Hydraulic Timestep 	0:05 
 Quality Timestep   	0:05 
 Pattern Timestep   	1:00 
 Pattern Start      	0:00 
 Report Timestep    	0:05 
 Report Start       	0:00 
 Start ClockTime    	00:00:00
 Statistic          	NONE

[REPORT]
 Status             	No
 Summary            	No
 Page               	0

[OPTIONS]
 Units              	CMH
 Headloss           	H-W
 Specific Gravity   	1.000000
 Viscosity          	1.000000
 Trials             	200
 Accuracy           	0.00100000
 CHECKFREQ          	2
 MAXCHECK           	10
 DAMPLIMIT          	0.00000000
 Unbalanced         	STOP
 Pattern            	PAT1
 Demand Multiplier  	1.00000000
 Demand Model       	PDA
 Minimum Pressure   	0
 Required Pressure  	20
 Pressure Exponent  	0.5
 Emitter Exponent   	0.5000
 Quality            	NONE mg/L
 Diffusivity        	1.000000
 Tolerance          	0.01000000

[COORDINATES]
;Node            	X-Coord           	Y-Coord
J2              	7633.710          	5737.440          
J13             	6450.570          	4424.640          
J14             	6466.770          	5769.850          
J19             	5332.250          	5332.250          
J21             	6094.000          	6499.190          
R40             	8700.600          	3371.150          
1               	7962.652          	5752.186          
T41             	6094.000          	6600.190          
T42             	2422.680          	4700.090          

[END]

