[TITLE]
Anytown master file for rl-wds

[JUNCTIONS]
;ID              	Elev        	Demand      	Pattern         
 J2              	15.2400     	150.425999  	PAT1            	;
 J13             	15.2400     	300.565002  	PAT1            	;
 J14             	15.2400     	400.565002  	PAT1            	;
 J19             	15.2400     	500.130005  	PAT1            	;
 J21             	15.2400     	700.000000  	PAT1            	;

[RESERVOIRS]
;ID              	Head        	Pattern         
 R40             	3.048       	                	;
 1               	3.048       	                	;

[TANKS]
;ID              	Elevation   	InitLevel   	MinLevel    	MaxLevel    	Diameter    	MinVol      	VolCurve        	Overflow
 T41             	66.535      	3.051       	0           	10.668      	9.9532      	0           	                	;
 T42             	66.535      	3.051       	0           	10.668      	9.9532      	0           	                	;

[PIPES]
;ID              	Node1           	Node2           	Length      	Diameter    	Roughness   	MinorLoss   	Status
 PIPE7           	J2              	J13             	2743.2000   	304.8       	70.0000     	0.0000      	Open  	;Res
 PIPE8           	J2              	J14             	1828.8000   	254.0       	120.0000    	0.0000      	Open  	;Res
 PIPE30          	J13             	J19             	1828.8000   	254.0       	70.0000     	0.0000      	Open  	;city
 PIPE32          	J14             	J19             	1828.8000   	254.0       	70.0000     	0.0000      	Open  	;city
 PIPE142         	J21             	T41             	0.3048      	304.8       	120.0000    	0.0000      	Open  	;city
 PIPE143         	J19             	T42             	0.3048      	304.8       	120.0000    	0.0000      	Open  	;Res

[PUMPS]
;ID              	Node1           	Node2           	Parameters
 P79             	R40             	J13             	HEAD H1	;
 P1              	1               	J2              	HEAD H1	;

[VALVES]
;ID              	Node1           	Node2           	Diameter    	Type	Setting     	MinorLoss   
 V1              	J21             	J14             	12          	PRV 	0           	0           	;

[TAGS]

[DEMANDS]
;Junction        	Demand      	Pattern         	Category

[STATUS]
;ID              	Status/Setting

[PATTERNS]
;ID              	Multipliers
;
 PAT1            	1.0000      	1.2000      	1.5000      	1.2000      	1.0000      	0.8000      
;
 PAT4            	0.0000      	0.0000      	0.0000      	0.0000      	0.0000      	0.0000      

[CURVES]
;ID              	X-Value     	Y-Value
;PUMP: PUMP: PUMP: ID              	X-Value     	Y-Value
 H1              	0.0000      	80.440      
 H1              	454.26000   	70.000      
 H1              	908.52000   	60.296      
 H1              	1362.7800   	45.104      
 H1              	1817.0400   	40.169      
 H1              	2900.0000   	0.          
;PUMP: PUMP: PUMP: 
 E1              	0.0000      	0.          
 E1              	454.26000   	.50         
 E1              	908.52000   	.65         
 E1              	1362.7800   	.55         
 E1              	1817.0400   	.40         
 E1              	2900.0000   	0.          

[CONTROLS]
LINK   P79  OPEN    IF NODE T42                BELOW    3
LINK   P79  CLOSED  IF NODE T42                ABOVE    8
LINK   P1  OPEN    IF NODE T41                BELOW    6
LINK   P1  CLOSED  IF NODE T41                ABOVE    7
LINK   V1  CLOSED  IF NODE T41                ABOVE    10
LINK   V1  OPEN    IF NODE T41                BELOW    9



[RULES]






[ENERGY]
 Global Efficiency  	75.0000
 Global Price       	0
 Demand Charge      	0.0000

[EMITTERS]
;Junction        	Coefficient

[QUALITY]
;Node            	InitQual

[SOURCES]
;Node            	Type        	Quality     	Pattern

[REACTIONS]
;Type     	Pipe/Tank       	Coefficient


[REACTIONS]
 Order Bulk            	1.00
 Order Tank            	1.00
 Order Wall            	1
 Global Bulk           	0.000000
 Global Wall           	0.000000
 Limiting Potential    	0
 Roughness Correlation 	0

[MIXING]
;Tank            	Model

[TIMES]
 Duration           	24:00 
 Hydraulic Timestep 	0:05 
 Quality Timestep   	0:05 
 Pattern Timestep   	1:00 
 Pattern Start      	0:00 
 Report Timestep    	0:05 
 Report Start       	0:00 
 Start ClockTime    	00:00:00
 Statistic          	NONE

[REPORT]
 Status             	No
 Summary            	No
 Page               	0

[OPTIONS]
 Units              	CMH
 Headloss           	H-W
 Specific Gravity   	1.000000
 Viscosity          	1.000000
 Trials             	200
 Accuracy           	0.00100000
 CHECKFREQ          	2
 MAXCHECK           	10
 DAMPLIMIT          	0.00000000
 Unbalanced         	STOP
 Pattern            	PAT1
 Demand Multiplier  	1.00000000
 Demand Model       	PDA
 Minimum Pressure   	0
 Required Pressure  	20
 Pressure Exponent  	0.5
 Emitter Exponent   	0.5000
 Quality            	NONE mg/L
 Diffusivity        	1.000000
 Tolerance          	0.01000000

[COORDINATES]
;Node            	X-Coord           	Y-Coord
J2              	7633.710          	5737.440          
J13             	6450.570          	4424.640          
J14             	6466.770          	5769.850          
J19             	5332.250          	5332.250          
J21             	6094.000          	6499.190          
R40             	8700.600          	3371.150          
1               	7962.652          	5752.186          
T41             	6094.000          	6600.190          
T42             	2422.680          	4700.090          

[VERTICES]
;Link            	X-Coord           	Y-Coord

[LABELS]
;X-Coord             Y-Coord             Label & Anchor Node

[BACKDROP]
  DIMENSIONS  	935.870           	2613.650          	9070.350          	8738.700          
 UNITS          	None
 FILE           	
 OFFSET         	0.00            	0.00            

[END]
